c Maximum weighted clique instances generated from exactcolors.
c cutoff: 1187110.
c A clique of value > scalef (1187110) defines an improving stable sets for coloring.
p edge 80 1135
e 1 4
e 1 12
e 1 13
e 1 14
e 1 15
e 1 16
e 1 17
e 1 19
e 1 21
e 1 23
e 1 24
e 1 34
e 1 37
e 1 38
e 1 39
e 1 42
e 1 49
e 1 50
e 1 51
e 1 54
e 1 56
e 1 59
e 1 60
e 1 61
e 1 62
e 1 64
e 1 65
e 1 66
e 1 67
e 1 68
e 1 69
e 1 72
e 1 73
e 1 74
e 1 75
e 1 76
e 1 77
e 1 78
e 1 79
e 1 80
e 2 13
e 2 14
e 2 15
e 2 17
e 2 19
e 2 24
e 2 34
e 2 37
e 2 38
e 2 39
e 2 42
e 2 51
e 2 54
e 2 56
e 2 60
e 2 62
e 2 65
e 2 67
e 2 69
e 2 71
e 2 73
e 2 74
e 2 75
e 2 77
e 2 78
e 2 79
e 3 4
e 3 12
e 3 13
e 3 14
e 3 15
e 3 17
e 3 19
e 3 21
e 3 23
e 3 24
e 3 34
e 3 37
e 3 38
e 3 39
e 3 42
e 3 49
e 3 50
e 3 51
e 3 54
e 3 56
e 3 59
e 3 60
e 3 61
e 3 62
e 3 64
e 3 65
e 3 66
e 3 67
e 3 68
e 3 69
e 3 71
e 3 72
e 3 73
e 3 74
e 3 75
e 3 76
e 3 77
e 3 78
e 3 79
e 3 80
e 4 6
e 4 9
e 4 10
e 4 11
e 4 18
e 4 26
e 4 27
e 4 28
e 4 29
e 4 31
e 4 40
e 4 41
e 4 43
e 4 44
e 4 45
e 4 46
e 4 47
e 4 48
e 4 52
e 4 53
e 4 55
e 5 13
e 5 14
e 5 15
e 5 19
e 5 21
e 5 23
e 5 24
e 5 34
e 5 37
e 5 38
e 5 39
e 5 42
e 5 49
e 5 50
e 5 51
e 5 54
e 5 56
e 5 59
e 5 61
e 5 62
e 5 64
e 5 65
e 5 66
e 5 67
e 5 68
e 5 69
e 5 71
e 5 72
e 5 73
e 5 74
e 5 75
e 5 76
e 5 77
e 5 78
e 5 79
e 5 80
e 6 12
e 6 13
e 6 14
e 6 15
e 6 17
e 6 21
e 6 23
e 6 24
e 6 34
e 6 37
e 6 38
e 6 39
e 6 42
e 6 49
e 6 50
e 6 51
e 6 54
e 6 56
e 6 59
e 6 60
e 6 61
e 6 62
e 6 64
e 6 65
e 6 66
e 6 67
e 6 68
e 6 69
e 6 71
e 6 72
e 6 73
e 6 74
e 6 75
e 6 76
e 6 77
e 6 78
e 6 79
e 6 80
e 7 13
e 7 14
e 7 15
e 7 17
e 7 19
e 7 21
e 7 23
e 7 24
e 7 34
e 7 37
e 7 38
e 7 39
e 7 42
e 7 49
e 7 50
e 7 54
e 7 56
e 7 59
e 7 60
e 7 61
e 7 62
e 7 64
e 7 65
e 7 66
e 7 67
e 7 68
e 7 69
e 7 71
e 7 72
e 7 73
e 7 76
e 7 77
e 7 78
e 7 79
e 7 80
e 8 13
e 8 14
e 8 15
e 8 17
e 8 19
e 8 24
e 8 34
e 8 37
e 8 38
e 8 39
e 8 42
e 8 51
e 8 54
e 8 56
e 8 60
e 8 62
e 8 65
e 8 67
e 8 69
e 8 71
e 8 73
e 8 74
e 8 75
e 8 77
e 8 78
e 8 79
e 9 12
e 9 14
e 9 19
e 9 24
e 9 38
e 9 50
e 9 51
e 9 54
e 9 56
e 9 59
e 9 61
e 9 64
e 9 66
e 9 68
e 9 71
e 9 72
e 9 73
e 9 74
e 9 76
e 9 79
e 10 12
e 10 13
e 10 14
e 10 15
e 10 16
e 10 17
e 10 19
e 10 21
e 10 23
e 10 24
e 10 34
e 10 37
e 10 38
e 10 39
e 10 42
e 10 49
e 10 50
e 10 51
e 10 56
e 10 59
e 10 60
e 10 61
e 10 62
e 10 64
e 10 65
e 10 66
e 10 67
e 10 68
e 10 69
e 10 72
e 10 73
e 10 74
e 10 76
e 10 77
e 10 78
e 10 79
e 10 80
e 11 12
e 11 13
e 11 14
e 11 15
e 11 16
e 11 17
e 11 19
e 11 21
e 11 23
e 11 24
e 11 34
e 11 37
e 11 38
e 11 39
e 11 42
e 11 49
e 11 50
e 11 51
e 11 54
e 11 56
e 11 59
e 11 60
e 11 61
e 11 62
e 11 64
e 11 65
e 11 66
e 11 67
e 11 68
e 11 69
e 11 72
e 11 73
e 11 74
e 11 75
e 11 76
e 11 77
e 11 78
e 11 79
e 11 80
e 12 27
e 12 28
e 12 29
e 12 31
e 12 41
e 12 45
e 12 46
e 12 47
e 12 48
e 12 52
e 12 53
e 12 55
e 12 58
e 13 20
e 13 22
e 13 25
e 13 30
e 13 31
e 13 32
e 13 35
e 13 36
e 13 45
e 13 46
e 13 47
e 13 48
e 13 52
e 13 53
e 13 57
e 13 58
e 13 70
e 14 18
e 14 20
e 14 22
e 14 25
e 14 27
e 14 31
e 14 32
e 14 33
e 14 35
e 14 36
e 14 40
e 14 41
e 14 43
e 14 44
e 14 45
e 14 46
e 14 47
e 14 48
e 14 52
e 14 53
e 14 57
e 14 58
e 14 63
e 14 70
e 15 20
e 15 22
e 15 25
e 15 30
e 15 31
e 15 32
e 15 33
e 15 36
e 15 45
e 15 46
e 15 47
e 15 48
e 15 52
e 15 53
e 15 57
e 15 58
e 15 63
e 15 70
e 16 48
e 16 71
e 17 22
e 17 28
e 17 29
e 17 30
e 17 31
e 17 32
e 17 33
e 17 35
e 17 45
e 17 47
e 17 48
e 17 52
e 17 53
e 17 58
e 17 63
e 18 19
e 18 24
e 18 38
e 18 50
e 18 51
e 18 54
e 18 56
e 18 59
e 18 61
e 18 64
e 18 66
e 18 68
e 18 72
e 18 73
e 18 74
e 18 75
e 18 76
e 18 79
e 19 20
e 19 22
e 19 25
e 19 27
e 19 31
e 19 32
e 19 33
e 19 35
e 19 40
e 19 41
e 19 43
e 19 44
e 19 45
e 19 46
e 19 47
e 19 48
e 19 52
e 19 53
e 19 55
e 19 57
e 19 58
e 19 70
e 20 21
e 20 24
e 20 34
e 20 37
e 20 38
e 20 39
e 20 49
e 20 50
e 20 54
e 20 56
e 20 59
e 20 60
e 20 61
e 20 62
e 20 64
e 20 65
e 20 66
e 20 67
e 20 68
e 20 69
e 20 71
e 20 72
e 20 73
e 20 75
e 20 76
e 20 77
e 20 78
e 20 79
e 20 80
e 21 22
e 21 25
e 21 28
e 21 29
e 21 30
e 21 31
e 21 32
e 21 33
e 21 35
e 21 36
e 21 46
e 21 47
e 21 48
e 21 52
e 21 53
e 21 57
e 21 58
e 21 63
e 21 70
e 22 23
e 22 24
e 22 34
e 22 37
e 22 38
e 22 39
e 22 42
e 22 50
e 22 54
e 22 56
e 22 59
e 22 60
e 22 61
e 22 62
e 22 65
e 22 67
e 22 68
e 22 69
e 22 71
e 22 73
e 22 75
e 22 76
e 22 77
e 22 78
e 22 79
e 22 80
e 23 28
e 23 29
e 23 30
e 23 31
e 23 32
e 23 35
e 23 47
e 23 48
e 23 52
e 23 53
e 23 58
e 23 63
e 24 25
e 24 27
e 24 31
e 24 32
e 24 33
e 24 35
e 24 36
e 24 40
e 24 41
e 24 43
e 24 44
e 24 45
e 24 46
e 24 47
e 24 48
e 24 52
e 24 53
e 24 57
e 24 58
e 24 63
e 24 70
e 25 34
e 25 37
e 25 38
e 25 39
e 25 49
e 25 50
e 25 51
e 25 54
e 25 56
e 25 59
e 25 60
e 25 61
e 25 62
e 25 64
e 25 65
e 25 66
e 25 67
e 25 68
e 25 69
e 25 72
e 25 73
e 25 74
e 25 75
e 25 76
e 25 77
e 25 78
e 25 79
e 25 80
e 26 50
e 26 51
e 26 59
e 26 61
e 26 64
e 26 66
e 26 68
e 26 71
e 26 72
e 26 74
e 26 76
e 27 38
e 27 50
e 27 51
e 27 54
e 27 56
e 27 59
e 27 61
e 27 64
e 27 66
e 27 68
e 27 71
e 27 72
e 27 73
e 27 74
e 27 75
e 27 76
e 28 49
e 28 50
e 28 51
e 28 59
e 28 60
e 28 61
e 28 64
e 28 66
e 28 68
e 28 71
e 28 72
e 28 74
e 28 76
e 28 80
e 29 49
e 29 50
e 29 51
e 29 59
e 29 60
e 29 61
e 29 64
e 29 66
e 29 68
e 29 71
e 29 72
e 29 74
e 29 76
e 29 80
e 30 34
e 30 37
e 30 38
e 30 39
e 30 42
e 30 49
e 30 50
e 30 51
e 30 54
e 30 59
e 30 60
e 30 61
e 30 62
e 30 64
e 30 65
e 30 66
e 30 68
e 30 71
e 30 72
e 30 73
e 30 74
e 30 75
e 30 76
e 30 78
e 30 79
e 30 80
e 31 34
e 31 37
e 31 38
e 31 39
e 31 42
e 31 49
e 31 54
e 31 56
e 31 60
e 31 61
e 31 62
e 31 64
e 31 65
e 31 66
e 31 67
e 31 68
e 31 69
e 31 71
e 31 72
e 31 73
e 31 75
e 31 76
e 31 77
e 31 78
e 31 79
e 31 80
e 32 34
e 32 37
e 32 38
e 32 39
e 32 42
e 32 49
e 32 50
e 32 51
e 32 54
e 32 56
e 32 59
e 32 60
e 32 61
e 32 62
e 32 64
e 32 65
e 32 66
e 32 67
e 32 68
e 32 69
e 32 72
e 32 74
e 32 75
e 32 76
e 32 77
e 32 78
e 32 79
e 32 80
e 33 34
e 33 37
e 33 38
e 33 39
e 33 42
e 33 49
e 33 50
e 33 51
e 33 54
e 33 56
e 33 59
e 33 60
e 33 61
e 33 62
e 33 64
e 33 65
e 33 66
e 33 67
e 33 68
e 33 69
e 33 71
e 33 72
e 33 73
e 33 74
e 33 76
e 33 77
e 33 78
e 33 79
e 33 80
e 34 36
e 34 45
e 34 46
e 34 47
e 34 48
e 34 52
e 34 53
e 34 57
e 34 58
e 34 63
e 34 70
e 35 37
e 35 38
e 35 39
e 35 42
e 35 49
e 35 50
e 35 51
e 35 54
e 35 56
e 35 59
e 35 60
e 35 61
e 35 62
e 35 64
e 35 65
e 35 66
e 35 67
e 35 68
e 35 69
e 35 71
e 35 72
e 35 73
e 35 74
e 35 75
e 35 76
e 35 77
e 35 78
e 35 80
e 36 37
e 36 38
e 36 39
e 36 49
e 36 50
e 36 51
e 36 54
e 36 56
e 36 59
e 36 60
e 36 61
e 36 62
e 36 64
e 36 65
e 36 66
e 36 67
e 36 68
e 36 69
e 36 71
e 36 72
e 36 73
e 36 74
e 36 75
e 36 76
e 36 77
e 36 78
e 36 79
e 36 80
e 37 45
e 37 46
e 37 47
e 37 48
e 37 52
e 37 53
e 37 57
e 37 58
e 37 63
e 37 70
e 38 40
e 38 41
e 38 43
e 38 44
e 38 45
e 38 46
e 38 47
e 38 48
e 38 52
e 38 53
e 38 57
e 38 58
e 38 70
e 39 45
e 39 46
e 39 47
e 39 48
e 39 52
e 39 53
e 39 57
e 39 63
e 39 70
e 40 50
e 40 51
e 40 54
e 40 56
e 40 59
e 40 61
e 40 64
e 40 66
e 40 68
e 40 73
e 40 74
e 40 75
e 40 79
e 41 50
e 41 51
e 41 54
e 41 56
e 41 59
e 41 61
e 41 66
e 41 68
e 41 71
e 41 72
e 41 73
e 41 74
e 41 76
e 41 79
e 42 45
e 42 46
e 42 47
e 42 48
e 42 52
e 42 53
e 42 58
e 43 50
e 43 51
e 43 54
e 43 56
e 43 59
e 43 61
e 43 64
e 43 66
e 43 68
e 43 72
e 43 73
e 43 74
e 43 76
e 43 79
e 44 50
e 44 51
e 44 54
e 44 56
e 44 59
e 44 61
e 44 64
e 44 66
e 44 68
e 44 72
e 44 73
e 44 74
e 44 76
e 44 79
e 45 54
e 45 56
e 45 60
e 45 62
e 45 65
e 45 67
e 45 69
e 45 71
e 45 75
e 45 77
e 45 78
e 46 50
e 46 51
e 46 54
e 46 56
e 46 59
e 46 61
e 46 65
e 46 66
e 46 67
e 46 68
e 46 69
e 46 71
e 46 72
e 46 74
e 46 76
e 46 77
e 46 78
e 46 79
e 46 80
e 47 49
e 47 54
e 47 56
e 47 60
e 47 62
e 47 65
e 47 67
e 47 69
e 47 75
e 47 77
e 48 49
e 48 54
e 48 56
e 48 59
e 48 61
e 48 62
e 48 64
e 48 65
e 48 67
e 48 69
e 48 73
e 48 75
e 48 77
e 48 78
e 48 80
e 49 52
e 49 53
e 49 58
e 49 63
e 49 70
e 50 53
e 50 55
e 50 57
e 50 58
e 50 63
e 50 70
e 51 53
e 51 55
e 51 57
e 51 58
e 51 63
e 51 70
e 52 54
e 52 56
e 52 60
e 52 62
e 52 65
e 52 67
e 52 69
e 52 71
e 52 75
e 52 77
e 52 78
e 52 80
e 53 54
e 53 56
e 53 59
e 53 60
e 53 61
e 53 62
e 53 64
e 53 65
e 53 66
e 53 67
e 53 68
e 53 69
e 53 71
e 53 72
e 53 74
e 53 75
e 53 76
e 53 77
e 53 78
e 53 79
e 53 80
e 54 57
e 54 70
e 55 59
e 55 61
e 55 64
e 55 66
e 55 68
e 55 71
e 55 72
e 55 74
e 55 76
e 55 79
e 56 57
e 56 58
e 56 70
e 57 59
e 57 62
e 57 64
e 57 65
e 57 66
e 57 67
e 57 68
e 57 69
e 57 72
e 57 73
e 57 74
e 57 75
e 57 76
e 57 77
e 57 78
e 57 79
e 57 80
e 58 59
e 58 60
e 58 61
e 58 62
e 58 64
e 58 66
e 58 67
e 58 68
e 58 69
e 58 71
e 58 72
e 58 73
e 58 74
e 58 76
e 58 77
e 58 78
e 58 79
e 58 80
e 59 63
e 59 70
e 60 70
e 61 63
e 61 70
e 62 63
e 62 70
e 63 64
e 63 65
e 63 66
e 63 67
e 63 68
e 63 72
e 63 73
e 63 74
e 63 75
e 63 76
e 63 78
e 63 79
e 63 80
e 64 70
e 65 70
e 66 70
e 67 70
e 68 70
e 69 70
e 70 71
e 70 72
e 70 74
e 70 75
e 70 77
e 70 78
e 70 79
n 1 593554
n 2 593554
n 3 593554
n 4 593554
n 5 593554
n 6 593554
n 7 593554
n 8 593554
n 9 593554
n 10 593554
n 11 593554
n 12 593554
n 13 593554
n 14 593554
n 15 593554
n 16 593554
n 17 593554
n 18 593554
n 19 593554
n 20 593554
n 21 593554
n 22 593554
n 23 593554
n 24 593554
n 25 593554
n 26 593554
n 27 593554
n 28 593554
n 29 593554
n 30 593554
n 31 593554
n 32 593554
n 33 593554
n 34 593554
n 35 593554
n 36 593554
n 37 593554
n 38 593554
n 39 593554
n 40 593554
n 41 593554
n 42 593554
n 43 593554
n 44 593554
n 45 593554
n 46 593554
n 47 593554
n 48 593554
n 49 593554
n 50 593554
n 51 593554
n 52 593554
n 53 593554
n 54 593554
n 55 593554
n 56 593554
n 57 593554
n 58 593554
n 59 593554
n 60 593554
n 61 593554
n 62 593554
n 63 593554
n 64 593554
n 65 593554
n 66 593554
n 67 593554
n 68 593554
n 69 593554
n 70 593554
n 71 593554
n 72 593554
n 73 593554
n 74 593554
n 75 593554
n 76 593554
n 77 593554
n 78 593554
n 79 593554
n 80 593554
